p cnf 12 50 
-9 -5 -7 0
1 4 -5 0
-3 -4 7 0
-1 12 4 0
2 -11 3 0
8 -4 11 0
-12 -4 -2 0
-5 2 -7 0
2 3 -10 0
10 -8 11 0
-11 -6 10 0
10 -12 -11 0
-3 9 -5 0
5 -6 2 0
3 6 5 0
7 2 -12 0
-7 -8 5 0
-12 2 -1 0
10 9 -6 0
-12 -5 -2 0
2 10 6 0
11 -5 -4 0
-7 4 9 0
7 12 4 0
1 9 -12 0
2 4 7 0
5 -1 -8 0
-11 -8 -1 0
-6 8 10 0
11 -2 9 0
-8 10 5 0
-12 -10 6 0
-10 -6 9 0
5 -12 -4 0
6 -5 2 0
9 10 5 0
-11 1 8 0
10 4 -12 0
10 -5 -8 0
-6 -7 -5 0
4 8 1 0
7 2 -11 0
5 6 -4 0
6 -5 -10 0
12 -11 1 0
12 -5 3 0
-6 10 9 0
8 12 9 0
-4 8 -6 0
11 3 6 0
